(set-logic QF_S)
(declare-fun var0 () String)
(declare-fun var1 () Int)
(declare-fun var2 () Bool)
(declare-fun var3 () String)
(declare-fun var4 () Int)
(declare-fun var5 () Bool)
(declare-fun var6 () String)
(declare-fun var7 () Int)
(declare-fun var8 () Bool)
(assert (<= (str.indexof var6 var6 var4) (str.indexof var3 var0 var7)))
(assert (> var7 var4))
(assert (<= (str.len var6) (str.indexof var6 var6 var7)))
(assert (str.prefixof (str.substr var6 var4 var4) (str.at (str.replace "BHt<30O*80" "9v#Eo:6[1K" var3) (str.indexof var6 var3 6))))
(check-sat)